DATASET = "thpack5";
INSTANCE = "018";

WIDTH = 233;
HEIGHT = 220;
LENGTH = 587;

NO_OF_SHAPES = 12;
size = [|
  104,55,30 |
  92,89,73 |
  88,88,43 |
  90,60,60 |
  79,53,41 |
  96,91,28 |
  100,90,79 |
  73,42,32 |
  115,85,60 |
  113,83,76 |
  68,50,31 |
  70,41,30 |
|];

verticality = [|
  0,1,1 |
  1,1,1 |
  0,0,1 |
  1,1,1 |
  1,1,1 |
  0,0,1 |
  1,1,1 |
  0,1,1 |
  1,1,1 |
  1,1,1 |
  0,1,1 |
  0,1,1 |
|];

box_count = [
  6,
  9,
  7,
  8,
  8,
  6,
  4,
  12,
  5,
  11,
  4,
  7,
];
